analyze/results_flowersnark/final_miplib_symretope_if_extended_generating_set_cpx_v802__settings_final_nosym_norestarts__2__square37.mps.gz.sol
solution status: optimal solution found
objective value:                                   15
x_1_1_12                                            1 	(obj:1)
x_1_13_9                                            1 	(obj:1)
x_1_22_16                                           1 	(obj:1)
x_10_13_2                                           1 	(obj:1)
x_10_15_7                                           1 	(obj:1)
x_12_13_1                                           1 	(obj:1)
x_12_14_1                                           1 	(obj:1)
x_13_1_9                                            1 	(obj:1)
x_13_10_5                           0.999999999999997 	(obj:1)
x_17_15_2                                           1 	(obj:1)
x_17_17_21                          0.999999999999997 	(obj:1)
x_18_10_4                                           1 	(obj:1)
x_18_14_1                                           1 	(obj:1)
x_19_14_3                           0.999999999999997 	(obj:1)
x_22_1_16                           0.999999999999997 	(obj:1)
y_21                                0.999999999999997 	(obj:0)
y_16                                                2 	(obj:0)
y_12                                                1 	(obj:0)
y_9                                                 2 	(obj:0)
y_7                                                 1 	(obj:0)
y_5                                 0.999999999999997 	(obj:0)
y_4                                                 1 	(obj:0)
y_3                                 0.999999999999997 	(obj:0)
y_2                                                 2 	(obj:0)
y_1                                                 3 	(obj:0)
