analyze/results_flowersnark/final_miplib_symretope_if_extended_generating_set_cpx_v802__settings_final_nosym_norestarts__2__square37.mps.gz.out
FILENAME:   /home/mcs001/s132664/testsets/IP/miplib2017/square37.mps.gz
SETTINGS:   settings_final_nosym_norestarts
TIMELIMIT:  7200
OUTPUTNAME: final_miplib_symretope_if_extended_generating_set_cpx_v802__settings_final_nosym_norestarts__2__
BINNAME:    bin/sbcs.linux.x86_64.gnu.opt.cpx
BASENAME:   square37.mps.gz
SEED:       2
@01 /home/mcs001/s132664/testsets/IP/miplib2017/square37.mps.gz ===========
@02 square37.mps.gz
@03 1686656554
SCIP version 8.0.2 [precision: 8 byte] [memory: block] [mode: optimized] [LP solver: CPLEX 20.1.0.0] [GitHash: 5f0473c]
Copyright (C) 2002-2022 Konrad-Zuse-Zentrum fuer Informationstechnik Berlin (ZIB)

Symretope propagation methods - (c) Jasper van Doornmalen, Christopher Hojny.
[GitHash: 2fd0484]

reading parameter file <../settings/settings_final_nosym_norestarts.set> ...

Changed settings:
limits/time = 7200
limits/restarts = 0
misc/usesymmetry = 0
randomization/randomseedshift = 2
constraints/orbisack/sepafreq = -1
constraints/symresack/sepafreq = -1
propagating/symmetry/detectsubgroups = FALSE
propagating/symmetry/usesymretopes = FALSE
propagating/symmetry/relabelsymretopes = 0
propagating/symmetry/ofsymcomptiming = 0
constraints/symretope/sepafreq = -1
constraints/symretope/peek = FALSE


solving problem ...

original problem has 49320 variables (49284 bin, 36 int, 0 impl, 0 cont) and 33150 constraints
presolving:
(round 1, fast)       31710 del vars, 31710 del conss, 0 add conss, 31746 chg bounds, 0 chg sides, 0 chg coeffs, 0 upgd conss, 0 impls, 1369 clqs
(round 2, exhaustive) 31710 del vars, 31710 del conss, 0 add conss, 31746 chg bounds, 0 chg sides, 0 chg coeffs, 1369 upgd conss, 0 impls, 1369 clqs
(round 3, exhaustive) 31710 del vars, 31734 del conss, 0 add conss, 31746 chg bounds, 24 chg sides, 0 chg coeffs, 1369 upgd conss, 0 impls, 1369 clqs
   (38.3s) probing: 1000/17574 (5.7%) - 0 fixings, 0 aggregations, 26351 implications, 0 bound changes
   (38.3s) probing: 1001/17574 (5.7%) - 0 fixings, 0 aggregations, 26368 implications, 0 bound changes
   (38.3s) probing aborted: 1000/1000 successive useless probings
presolving (4 rounds: 4 fast, 3 medium, 3 exhaustive):
 31710 deleted vars, 31734 deleted constraints, 0 added constraints, 31746 tightened bounds, 0 added holes, 24 changed sides, 0 changed coefficients
 26249 implications, 1488 cliques
presolved problem has 17610 variables (17574 bin, 36 int, 0 impl, 0 cont) and 1416 constraints
   1369 constraints of type <setppc>
     47 constraints of type <linear>
transformed objective value is always integral (scale: 1)
Presolving Time: 37.43

 time | node  | left  |LP iter|LP it/n|mem/heur|mdpt |vars |cons |rows |cuts |sepa|confs|strbr|  dualbound   | primalbound  |  gap   | compl. 
p41.8s|     1 |     0 |     0 |     - |  clique|   0 |  17k|1416 |1416 |   0 |  0 |   0 |   0 | 4.000000e+00 | 4.000000e+01 | 900.00%| unknown
 94.8s|     1 |     0 |  2434 |     - |  3190M |   0 |  17k|1430 |1416 |   0 |  0 |  29 |   0 | 8.666667e+00 | 4.000000e+01 | 361.54%| unknown
  408s|     1 |     2 | 31716 |     - |  3195M |   0 |  17k|1429 |1416 |   0 |  2 |  30 |  21 | 8.797436e+00 | 4.000000e+01 | 354.68%| unknown
* 747s|     8 |     7 | 50054 |6803.7 |strongbr|   7 |  17k|1416 |1416 |   0 |  1 |  30 | 146 | 8.850145e+00 | 1.700000e+01 |  92.09%| unknown
* 813s|    29 |    15 | 86429 |3000.0 |    LP  |  12 |  17k|1416 |1416 |   0 |  2 |  30 | 175 | 8.850145e+00 | 1.600000e+01 |  80.79%|   1.27%
 1221s|   100 |    58 |288775 |2892.4 |  3237M |  16 |  17k|1472 |1416 |   0 |  2 | 104 | 255 | 9.794576e+00 | 1.600000e+01 |  63.36%|  20.95%
*1405s|   132 |    60 |369465 |2801.8 |    LP  |  27 |  17k|1432 |1416 |   0 |  4 | 136 | 297 | 1.021697e+01 | 1.500000e+01 |  46.81%|  33.42%
 1599s|   200 |    70 |464422 |2321.6 |  3272M |  40 |  17k|1442 |1416 |   0 |  2 | 247 | 367 | 1.036316e+01 | 1.500000e+01 |  44.74%|  33.84%
 1814s|   300 |    74 |596852 |1988.0 |  3284M |  58 |  17k|1460 |1416 |   0 |  0 | 285 | 457 | 1.081295e+01 | 1.500000e+01 |  38.72%|  35.49%
 1977s|   400 |    78 |716706 |1790.2 |  3292M |  71 |  17k|1469 |1416 |   0 |  2 | 339 | 530 | 1.091079e+01 | 1.500000e+01 |  37.48%|  38.44%
 2124s|   500 |    82 |827546 |1653.5 |  3309M |  85 |  17k|1508 |1416 |   0 |  4 | 422 | 614 | 1.140884e+01 | 1.500000e+01 |  31.48%|  40.08%
 2235s|   600 |    82 |927257 |1544.0 |  3316M |  89 |  17k|1526 |1416 |   0 |  1 | 483 | 680 | 1.163986e+01 | 1.500000e+01 |  28.87%|  42.91%
 2332s|   700 |    88 |  1015k|1449.6 |  3323M |  99 |  17k|1555 |1416 |   0 |  2 | 538 | 741 | 1.164404e+01 | 1.500000e+01 |  28.82%|  43.73%
 2438s|   800 |    86 |  1106k|1381.8 |  3335M | 112 |  17k|1611 |1416 |   0 |  0 | 623 | 817 | 1.175000e+01 | 1.500000e+01 |  27.66%|  45.93%
 2513s|   900 |    86 |  1181k|1311.8 |  3337M | 124 |  17k|1621 |1416 |   0 |  0 | 647 | 865 | 1.175000e+01 | 1.500000e+01 |  27.66%|  48.68%
 time | node  | left  |LP iter|LP it/n|mem/heur|mdpt |vars |cons |rows |cuts |sepa|confs|strbr|  dualbound   | primalbound  |  gap   | compl. 
 2577s|  1000 |    86 |  1251k|1250.3 |  3341M | 124 |  17k|1628 |1416 |   0 |  0 | 706 | 903 | 1.180569e+01 | 1.500000e+01 |  27.06%|  53.01%
 2628s|  1100 |    84 |  1304k|1184.9 |  3352M | 124 |  17k|1665 |1416 |   0 |  2 | 761 | 957 | 1.181190e+01 | 1.500000e+01 |  26.99%|  56.62%
 2692s|  1200 |    86 |  1371k|1141.9 |  3358M | 143 |  17k|1683 |1416 |   0 |  0 | 803 |1013 | 1.181190e+01 | 1.500000e+01 |  26.99%|  59.52%
 2792s|  1300 |    70 |  1459k|1121.7 |  3375M | 143 |  17k|1776 |1416 |   0 |  0 | 974 |1096 | 1.245193e+01 | 1.500000e+01 |  20.46%|  70.87%
 2885s|  1400 |    46 |  1537k|1097.6 |  3404M | 148 |  17k|1893 |1416 |   0 |  0 |1192 |1215 | 1.277209e+01 | 1.500000e+01 |  17.44%|  80.53%

SCIP Status        : problem is solved [optimal solution found]
Solving Time (sec) : 2941.66
Solving Nodes      : 1448
Primal Bound       : +1.50000000000000e+01 (5 solutions)
Dual Bound         : +1.50000000000000e+01
Gap                : 0.00 %
SCIP Status        : problem is solved [optimal solution found]
Total Time         :    2946.93
  solving          :    2941.66
  presolving       :      37.43 (included in solving)
  reading          :       5.27
  copying          :       3.05 (14 #copies) (minimal 0.21, maximal 0.23, average 0.22)
Original Problem   :
  Problem name     : square37
  Variables        : 49320 (49284 binary, 36 integer, 0 implicit integer, 0 continuous)
  Constraints      : 33150 initial, 33150 maximal
  Objective        : minimize, 49284 non-zeros (abs.min = 1, abs.max = 1)
Presolved Problem  :
  Problem name     : t_square37
  Variables        : 17610 (17574 binary, 36 integer, 0 implicit integer, 0 continuous)
  Constraints      : 1416 initial, 1961 maximal
  Objective        : minimize, 17430 non-zeros (abs.min = 1, abs.max = 1)
  Nonzeros         : 2657755 constraint, 2282580 clique table
Presolvers         :   ExecTime  SetupTime  Calls  FixedVars   AggrVars   ChgTypes  ChgBounds   AddHoles    DelCons    AddCons   ChgSides   ChgCoefs
  boundshift       :       0.00       0.00      0          0          0          0          0          0          0          0          0          0
  convertinttobin  :       0.00       0.00      0          0          0          0          0          0          0          0          0          0
  domcol           :       0.45       0.00      1          0          0          0          0          0          0          0          0          0
  dualagg          :       0.00       0.00      0          0          0          0          0          0          0          0          0          0
  dualcomp         :       0.00       0.00      0          0          0          0          0          0          0          0          0          0
  dualinfer        :       0.00       0.00      0          0          0          0          0          0          0          0          0          0
  dualsparsify     :       2.15       0.00      1          0          0          0          0          0          0          0          0          0
  gateextraction   :       0.00       0.00      0          0          0          0          0          0          0          0          0          0
  implics          :       0.00       0.00      3          0          0          0          0          0          0          0          0          0
  inttobinary      :       0.00       0.00      4          0          0          0          0          0          0          0          0          0
  qpkktref         :       0.00       0.00      0          0          0          0          0          0          0          0          0          0
  redvub           :       0.00       0.00      0          0          0          0          0          0          0          0          0          0
  sparsify         :       1.20       0.00      1          0          0          0          0          0          0          0          0          0
  stuffing         :       0.00       0.00      0          0          0          0          0          0          0          0          0          0
  trivial          :       0.01       0.00      4          0          0          0          0          0          0          0          0          0
  tworowbnd        :       0.00       0.00      0          0          0          0          0          0          0          0          0          0
  dualfix          :       0.00       0.00      4          0          0          0          0          0          0          0          0          0
  genvbounds       :       0.00       0.00      0          0          0          0          0          0          0          0          0          0
  probing          :      19.94       0.00      1          0          0          0          0          0          0          0          0          0
  pseudoobj        :       0.00       0.00      0          0          0          0          0          0          0          0          0          0
  symmetry         :       0.00       0.00      0          0          0          0          0          0          0          0          0          0
  vbounds          :       0.04       0.00      1          0          0          0          0          0          0          0          0          0
  knapsack         :       0.00       0.00      0          0          0          0          0          0          0          0          0          0
  setppc           :       0.74       0.02      6          0          0          0          0          0          0          0          0          0
  linear           :      11.73       2.31      7      31710          0          0      31746          0      31734          0         24          0
  logicor          :       0.00       0.00      0          0          0          0          0          0          0          0          0          0
  bounddisjunction :       0.00       0.00      0          0          0          0          0          0          0          0          0          0
  benders          :       0.00       0.00      0          0          0          0          0          0          0          0          0          0
  components       :       0.43       0.00      1          0          0          0          0          0          0          0          0          0
  root node        :          -          -      -       1231          -          -       1288          -          -          -          -          -
Constraints        :     Number  MaxNumber  #Separate #Propagate    #EnfoLP    #EnfoRelax  #EnfoPS    #Check   #ResProp    Cutoffs    DomReds       Cuts    Applied      Conss   Children
  benderslp        :          0          0          0          0        863          0          0         42          0          0          0          0          0          0          0
  integral         :          0          0          0          0        863          0          0         42          0          1        509          0          0        970       1466
  knapsack         :          0+         6          0       7125          0          0          0          0         62          0        162          0          0          0          0
  setppc           :       1369+      1391          1      17792          2          0          0         36     629505         97     795828          0          0          0          0
  linear           :         47+        49          1      17695          2          0          0          3      99344         62      28790          0          0          0          0
  logicor          :          0+        37          1       1417          0          0          0          0         42          0         19          0          0          0          0
  bounddisjunction :          0+       520          0       2642          0          0          0          0        313          4         16          0          0          0          0
  benders          :          0          0          0          0          2          0          0          4          0          0          0          0          0          0          0
  countsols        :          0          0          0          0          2          0          0          4          0          0          0          0          0          0          0
  components       :          0          0          0          0          0          0          0          0          0          0          0          0          0          0          0
Constraint Timings :  TotalTime  SetupTime   Separate  Propagate     EnfoLP     EnfoPS     EnfoRelax   Check    ResProp    SB-Prop
  benderslp        :       0.00       0.00       0.00       0.00       0.00       0.00       0.00       0.00       0.00       0.00
  integral         :    1153.21       0.00       0.00       0.00    1153.19       0.00       0.00       0.02       0.00       0.00
  knapsack         :       0.01       0.00       0.00       0.01       0.00       0.00       0.00       0.00       0.00       0.00
  setppc           :      17.45       0.02       0.20       5.03       0.00       0.00       0.00       0.03       3.33       8.84
  linear           :       6.98       2.31       0.00       3.33       0.00       0.00       0.00       0.00       0.67       0.66
  logicor          :       0.02       0.00       0.00       0.01       0.00       0.00       0.00       0.00       0.01       0.00
  bounddisjunction :       0.23       0.00       0.00       0.11       0.00       0.00       0.00       0.00       0.07       0.06
  benders          :       0.00       0.00       0.00       0.00       0.00       0.00       0.00       0.00       0.00       0.00
  countsols        :       0.00       0.00       0.00       0.00       0.00       0.00       0.00       0.00       0.00       0.00
  components       :       0.00       0.00       0.00       0.00       0.00       0.00       0.00       0.00       0.00       0.00
Propagators        : #Propagate   #ResProp    Cutoffs    DomReds
  dualfix          :          3          0          0          0
  genvbounds       :          0          0          0          0
  nlobbt           :          0          0          0          0
  obbt             :          0          0          0          0
  probing          :          0          0          0          0
  pseudoobj        :       5372          0          0          0
  redcost          :       3321          0          0     997403
  rootredcost      :          4          0          0        543
  symmetry         :          0          0          0          0
  vbounds          :       6744          0          0          0
Propagator Timings :  TotalTime  SetupTime   Presolve  Propagate    ResProp    SB-Prop
  dualfix          :       0.01       0.00       0.00       0.00       0.00       0.00
  genvbounds       :       0.01       0.00       0.00       0.00       0.00       0.00
  nlobbt           :       0.00       0.00       0.00       0.00       0.00       0.00
  obbt             :       0.00       0.00       0.00       0.00       0.00       0.00
  probing          :      19.94       0.00      19.94       0.00       0.00       0.00
  pseudoobj        :       0.11       0.00       0.00       0.11       0.00       0.00
  redcost          :       4.68       0.00       0.00       4.68       0.00       0.00
  rootredcost      :       0.08       0.00       0.00       0.08       0.00       0.00
  symmetry         :       0.00       0.00       0.00       0.00       0.00       0.00
  vbounds          :       0.11       0.00       0.04       0.06       0.00       0.01
Conflict Analysis  :       Time      Calls    Success    DomReds  Conflicts   Literals    Reconvs ReconvLits   Dualrays   Nonzeros   LP Iters   (pool size: [10000,10000])
  propagation      :       1.25        102         94          -        513     2267.4          1     2653.0          -          -          -
  infeasible LP    :       3.89         79         10          -         49     1457.7          0        0.0          8      465.1          0
  bound exceed. LP :     162.15        457        478          -       2491     1749.0         34      255.8         56        1.0       6870
  strong branching :       0.00          0          0          -          0        0.0          0        0.0          -          -          0
  pseudo solution  :       0.00          0          0          -          0        0.0          0        0.0          -          -          -
  applied globally :      91.62          -          -         56       1282     1019.7          -          -         64          -          -
  applied locally  :          -          -          -          0         70     3607.0          -          -          0          -          -
Separators         :   ExecTime  SetupTime      Calls  RootCalls    Cutoffs    DomReds  FoundCuts ViaPoolAdd  DirectAdd    Applied ViaPoolApp  DirectApp      Conss
  cut pool         :       0.00          -          0          0          -          -          0          0          -          -          -          -          -    (maximal pool size:          0)
  aggregation      :       1.76       0.00         74          1          0          0          0          0          0          0          0          0          0
  > cmir           :          -          -          -          -          -          -          -          0          0          0          0          0          -
  > flowcover      :          -          -          -          -          -          -          -          0          0          0          0          0          -
  > knapsackcover  :          -          -          -          -          -          -          -          0          0          0          0          0          -
  cgmip            :       0.00       0.00          0          0          0          0          0          0          0          0          0          0          0
  clique           :      20.45       0.00          1          1          0          0          0          0          0          0          0          0          0
  closecuts        :       0.00       0.00          0          0          0          0          0          0          0          0          0          0          0
  convexproj       :       0.00       0.00          0          0          0          0          0          0          0          0          0          0          0
  disjunctive      :       0.00       0.00          0          0          0          0          0          0          0          0          0          0          0
  eccuts           :       0.00       0.00          0          0          0          0          0          0          0          0          0          0          0
  gauge            :       0.00       0.00          0          0          0          0          0          0          0          0          0          0          0
  gomory           :       4.31       0.00         74          1          0          0          0          0          0          0          0          0          0
  > gomorymi       :          -          -          -          -          -          -          -          0          0          0          0          0          -
  > strongcg       :          -          -          -          -          -          -          -          0          0          0          0          0          -
  impliedbounds    :       0.14       0.00         74          1          0          0          0          0          0          0          0          0          0
  interminor       :       0.00       0.00          0          0          0          0          0          0          0          0          0          0          0
  intobj           :       0.00       0.00          0          0          0          0          0          0          0          0          0          0          0
  mcf              :       0.02       0.00          1          1          0          0          0          0          0          0          0          0          0
  minor            :       0.00       0.00          0          0          0          0          0          0          0          0          0          0          0
  mixing           :       0.00       0.00         76          1          0          0          0          0          0          0          0          0          0
  oddcycle         :       0.00       0.00          0          0          0          0          0          0          0          0          0          0          0
  rapidlearning    :       0.01       0.00          0          0          0          0          0          0          0          0          0          0          0
  rlt              :       0.00       0.00          1          1          0          0          0          0          0          0          0          0          0
  zerohalf         :       0.61       0.00         74          1          0          0          0          0          0          0          0          0          0
Cutselectors       :   ExecTime  SetupTime      Calls  RootCalls   Selected     Forced   Filtered  RootSelec   RootForc   RootFilt 
  hybrid           :       0.00       0.00          0          0          0          0          0          0          0          0
Pricers            :   ExecTime  SetupTime      Calls       Vars
  problem variables:       0.00          -          0          0
Branching Rules    :   ExecTime  SetupTime   BranchLP  BranchExt   BranchPS    Cutoffs    DomReds       Cuts      Conss   Children
  allfullstrong    :       0.00       0.00          0          0          0          0          0          0          0          0
  cloud            :       0.00       0.00          0          0          0          0          0          0          0          0
  distribution     :       0.00       0.00          0          0          0          0          0          0          0          0
  fullstrong       :       0.00       0.00          0          0          0          0          0          0          0          0
  inference        :       0.00       0.00          0          0          0          0          0          0          0          0
  leastinf         :       0.00       0.00          0          0          0          0          0          0          0          0
  lookahead        :       0.00       0.00          0          0          0          0          0          0          0          0
  mostinf          :       0.00       0.00          0          0          0          0          0          0          0          0
  multaggr         :       0.00       0.00          0          0          0          0          0          0          0          0
  nodereopt        :       0.00       0.00          0          0          0          0          0          0          0          0
  pscost           :       0.00       0.00          0          0          0          0          0          0          0          0
  random           :       0.00       0.00          0          0          0          0          0          0          0          0
  relpscost        :    1153.18       0.00        861          0          0          1        509          0       1074       1466
  vanillafullstrong:       0.00       0.00          0          0          0          0          0          0          0          0
Primal Heuristics  :   ExecTime  SetupTime      Calls      Found       Best
  LP solutions     :       0.01          -          -          2          2
  relax solutions  :       0.00          -          -          0          0
  pseudo solutions :       0.00          -          -          0          0
  strong branching :       0.01          -          -          1          1
  actconsdiving    :       0.00       0.00          0          0          0
  adaptivediving   :       2.49       0.00          3          0          0
  alns             :       5.62       0.00          5          0          0
  bound            :       0.00       0.00          0          0          0
  clique           :       0.90       0.00          1          1          1
  coefdiving       :       0.00       0.00          0          0          0
  completesol      :       0.00       0.00          0          0          0
  conflictdiving   :      98.92       0.00          2          0          0
  crossover        :       0.56       0.00          2          0          0
  dins             :       0.00       0.00          0          0          0
  distributiondivin:       1.98       0.00          2          0          0
  dps              :       0.00       0.00          0          0          0
  dualval          :       0.00       0.00          0          0          0
  farkasdiving     :       0.00       0.00          0          0          0
  feaspump         :     108.52       0.00          1          0          0
  fixandinfer      :       0.00       0.00          0          0          0
  fracdiving       :       0.12       0.00          2          0          0
  gins             :       0.53       0.00          0          0          0
  guideddiving     :       0.81       0.00          2          0          0
  indicator        :       0.00       0.00          0          0          0
  intdiving        :       0.00       0.00          0          0          0
  intshifting      :       0.00       0.00          0          0          0
  linesearchdiving :       1.59       0.00          2          0          0
  localbranching   :       0.00       0.00          0          0          0
  locks            :       0.32       0.00          1          0          0
  lpface           :       0.00       0.00          0          0          0
  mpec             :       0.00       0.00          0          0          0
  multistart       :       0.00       0.00          0          0          0
  mutation         :       0.00       0.00          0          0          0
  nlpdiving        :       0.00       0.00          0          0          0
  objpscostdiving  :       7.12       0.00          1          1          0
  octane           :       0.00       0.00          0          0          0
  ofins            :       0.00       0.00          0          0          0
  oneopt           :       0.21       0.00          4          0          0
  padm             :       0.00       0.00          0          0          0
  proximity        :       0.00       0.00          0          0          0
  pscostdiving     :       5.72       0.00          2          0          0
  randrounding     :       0.15       0.00         29          0          0
  rens             :       0.31       0.00          1          0          0
  reoptsols        :       0.00       0.00          0          0          0
  repair           :       0.00       0.00          0          0          0
  rins             :       2.42       0.00          6          0          0
  rootsoldiving    :      16.83       0.00          1          0          0
  rounding         :       2.85       0.00        369          0          0
  shiftandpropagate:       0.00       0.00          0          0          0
  shifting         :       4.05       0.00         82          0          0
  simplerounding   :       0.00       0.00          0          0          0
  subnlp           :       0.00       0.00          0          0          0
  trivial          :       0.09       0.00          2          0          0
  trivialnegation  :       0.00       0.00          0          0          0
  trustregion      :       0.00       0.00          0          0          0
  trysol           :       0.00       0.00          0          0          0
  twoopt           :       0.00       0.00          0          0          0
  undercover       :       0.00       0.00          0          0          0
  vbounds          :      45.95       0.00          1          0          0
  veclendiving     :       6.76       0.00          2          0          0
  zeroobj          :       0.00       0.00          0          0          0
  zirounding       :       0.17       0.00        733          0          0
  other solutions  :          -          -          -          0          -
LP                 :       Time      Calls Iterations  Iter/call   Iter/sec  Time-0-It Calls-0-It    ItLimit
  primal LP        :       0.00          0          0       0.00          -       0.00          0
  dual LP          :    1351.50       3155    1496320     966.61    1107.15      14.29       1607
  lex dual LP      :       0.00          0          0       0.00          -
  barrier LP       :       0.00          0          0       0.00          -       0.00          0
  resolve instable :       0.00          0          0       0.00          -
  diving/probing LP:     240.77         59      79870    1353.73     331.73
  strong branching :     995.41       1299     855458     658.55     859.40          -          -       1422
    (at root node) :          -         21      18631     887.19          -
  conflict analysis:      48.13        687       6870      10.00     142.75
B&B Tree           :
  number of runs   :          1
  nodes            :       1448 (733 internal, 715 leaves)
  feasible leaves  :          2
  infeas. leaves   :         60
  objective leaves :        653
  nodes (total)    :       1448 (733 internal, 715 leaves)
  nodes left       :          0
  max depth        :        148
  max depth (total):        148
  backtracks       :        225 (15.5%)
  early backtracks :          0 (0.0%)
  nodes exc. ref.  :          0 (0.0%)
  delayed cutoffs  :          0
  repropagations   :         81 (33 domain reductions, 0 cutoffs)
  avg switch length:       8.17
  switching time   :       6.71
Root Node          :
  First LP value   : +8.66666666666667e+00
  First LP Iters   :       2428 (370.18 Iter/sec)
  First LP Time    :       6.56
  Final Dual Bound : +8.79743637746569e+00
  Final Root Iters :       2428
  Root LP Estimate : +1.13760365832966e+01
Solution           :
  Solutions found  :          5 (4 improvements)
  First Solution   : +4.00000000000000e+01   (in run 1, after 1 nodes, 41.83 seconds, depth 6, found by <clique>)
  Gap First Sol.   :     900.00 %
  Gap Last Sol.    :      46.81 %
  Primal Bound     : +1.50000000000000e+01   (in run 1, after 132 nodes, 1404.82 seconds, depth 27, found by <relaxation>)
  Dual Bound       : +1.50000000000000e+01
  Gap              :       0.00 %
Integrals          :      Total       Avg%
  primal-dual      :  124521.38      42.33
  primal-ref       :          -          - (not evaluated)
  dual-ref         :          -          - (not evaluated)
written solution information to file <results/final_miplib_symretope_if_extended_generating_set_cpx_v802__settings_final_nosym_norestarts__2__square37.mps.gz.sol>
@04 1686659504
